total_posiciones_fijas = 1;

posiciones_fijas = [|2, 3|];
tam_cuadricula = 7;

matriz_poblacional = [|1, 2, 3, 4, 5, 6, 7
                      |2, 3, 4, 5, 6, 7, 1
                      |3, 4, 5, 6, 7, 1, 2
                      |4, 5, 6, 7, 8, 9, 10
                      |5, 6, 7, 8, 9, 10, 11
                      |6, 7, 8, 9, 10, 11, 12
                      |7, 8, 9, 10, 11, 12, 13|];


matriz_economica = [|10, 11, 12, 13, 14, 15, 16
                    |11, 12, 13, 14, 15, 16, 17
                    |12, 13, 14, 15, 16, 17, 18
                    |13, 14, 15, 16, 17, 18, 19
                    |14, 15, 16, 17, 18, 19, 20
                    |15, 16, 17, 18, 19, 20, 21
                    |16, 17, 18, 19, 20, 21, 22|];

cantidad_ubicaciones=1;